(set-logic QF_S)
(declare-fun var0 () String)
(assert (str.in.re var0 (re.++ (re.union (re.inter (re.union (str.to.re "00") (str.to.re "11")) (re.union (str.to.re "2") (str.to.re "33"))) (re.inter (re.union (str.to.re "444") (str.to.re "55")) (re.union (str.to.re "66") (str.to.re "77")))) (re.++ (re.union (re.inter (re.union (str.to.re "88") (str.to.re "99")) (re.union (str.to.re "aaa") (str.to.re "b"))) (re.inter (re.union (str.to.re "ccc") (str.to.re "d")) (re.union (str.to.re "ee") (str.to.re "f")))) (re.union (re.inter (re.union (str.to.re "g") (str.to.re "hhh")) (re.union (str.to.re "ii") (str.to.re "jjj"))) (re.inter (re.union (str.to.re "kkk") (str.to.re "lll")) (re.union (str.to.re "m") (str.to.re "nn"))))))))
(check-sat)
(get-model)
